n= 4
m= 30
1000
1800
2500
3000
1031	12	2
1673	30	5
2151	20	4
1739	24	3
373	49	7
460	18	2
2307	24	3
2263	6	1
1753	42	6
1273	35	7
2290	35	5
289	42	6
1782	27	3
2262	54	6
787	32	4
1475	42	6
2335	15	3
1207	27	3
2056	21	3
511	63	7
1684	54	6
706	35	7
1369	36	4
479	36	4
1638	32	4
273	30	6
681	24	3
1570	21	3
418	28	4
1476	24	4
